20
20
372
369
345
325
322
293
287
285
250
245
187
165
129
119
112
96
60
28
19
11
15	622
97	950
91	857
431	681
411	557
897	942
664	536
734	552
879	568
427	129
9	761
9	386
45	184
136	500
216	470
302	594
387	737
750	876
826	827
732	343
